\ Model matlab
\ LP format - for model browsing. Use MPS format to capture full model detail.
Minimize
  3 C0 + 3 C1 + 3 C2 + 3 C3 + 4 C4 + 4 C5 + 4 C6 + 4 C7 + 10 C8 + 10 C9
   + 10 C10 + 10 C11 - 52.60879781214719 C16 - 55.21842316338267 C17
   - 57.81372325201154 C18 - 60.38758454088796 C19 + 0.064 C20 + 0.064 C21
   + 0.064 C22 + 0.064 C23 - 52.60879781214719 C28 - 55.21842316338267 C29
   - 57.81372325201154 C30 - 60.38758454088796 C31 + 0.072 C32 + 0.072 C33
   + 0.072 C34 + 0.072 C35 + 7.253333333333333 C36 - 367.562 C37
   + 448.1113015967066 C38 - 85.98940972792767 C39 + 7.253333333333333 C40
   - 367.562 C41 + 448.1113015967066 C42 - 85.98940972792767 C43
   + 7.253333333333333 C44 - 367.562 C45 + 448.1113015967066 C46
   - 85.98940972792767 C47 + 7.253333333333333 C48 - 367.562 C49
   + 448.1113015967066 C50 - 85.98940972792767 C51 - 52.61679781214719 C52
   - 55.22642316338268 C53 - 57.82172325201155 C54 - 60.39558454088797 C55
   + 2.7904 C56 + 17.5632 C57 - 7.347425448559642 C58
   + 16.23248000000005 C59 + 2.7904 C60 + 17.5632 C61
   - 7.347425448559642 C62 + 16.23248000000005 C63 + 2.7904 C64
   + 17.5632 C65 - 7.347425448559642 C66 + 16.23248000000005 C67
   + 2.7904 C68 + 17.5632 C69 - 7.347425448559642 C70
   + 16.23248000000005 C71
Subject To
 R0: 2 C12 + C16 <= 2
 R1: - 3 C12 - C16 <= -2.22045e-016
 R2: - C72 <= 0
 R3: C72 <= 48
 R4: - 2 C12 + C20 <= 0
 R5: - 3 C12 - C20 <= 0
 R6: - 3 C12 - C16 + C20 <= 3
 R7: 2 C12 + C16 - C20 <= 2
 R8: 2 C13 + C17 <= 2
 R9: - 3 C13 - C17 <= -2.22045e-016
 R10: 0.16 C16 + 0.02 C20 - C72 <= 0
 R11: - 0.16 C16 - 0.02 C20 + C72 <= 48
 R12: - 2 C13 + C21 <= 0
 R13: - 3 C13 - C21 <= 0
 R14: - 3 C13 - C17 + C21 <= 3
 R15: 2 C13 + C17 - C21 <= 2
 R16: 2 C14 + C18 <= 2
 R17: - 3 C14 - C18 <= -2.22045e-016
 R18: 0.16 C16 + 0.16 C17 + 0.02 C20 + 0.02 C21 - C72 <= 0
 R19: - 0.16 C16 - 0.16 C17 - 0.02 C20 - 0.02 C21 + C72 <= 48
 R20: - 2 C14 + C22 <= 0
 R21: - 3 C14 - C22 <= 0
 R22: - 3 C14 - C18 + C22 <= 3
 R23: 2 C14 + C18 - C22 <= 2
 R24: 2 C15 + C19 <= 2
 R25: - 3 C15 - C19 <= -2.22045e-016
 R26: 0.16 C16 + 0.16 C17 + 0.16 C18 + 0.02 C20 + 0.02 C21 + 0.02 C22 - C72
   <= 0
 R27: - 0.16 C16 - 0.16 C17 - 0.16 C18 - 0.02 C20 - 0.02 C21 - 0.02 C22
   + C72 <= 48
 R28: - 2 C15 + C23 <= 0
 R29: - 3 C15 - C23 <= 0
 R30: - 3 C15 - C19 + C23 <= 3
 R31: 2 C15 + C19 - C23 <= 2
 R32: 3 C24 + C28 <= 3
 R33: - 4 C24 - C28 <= -2.22045e-016
 R34: - C73 <= 0
 R35: C73 <= 64
 R36: - 3 C24 + C32 <= 0
 R37: - 4 C24 - C32 <= 0
 R38: - 4 C24 - C28 + C32 <= 4
 R39: 3 C24 + C28 - C32 <= 3
 R40: 3 C25 + C29 <= 3
 R41: - 4 C25 - C29 <= -2.22045e-016
 R42: 0.18 C28 + 0.02 C32 - C73 <= 0
 R43: - 0.18 C28 - 0.02 C32 + C73 <= 64
 R44: - 3 C25 + C33 <= 0
 R45: - 4 C25 - C33 <= 0
 R46: - 4 C25 - C29 + C33 <= 4
 R47: 3 C25 + C29 - C33 <= 3
 R48: 3 C26 + C30 <= 3
 R49: - 4 C26 - C30 <= -2.22045e-016
 R50: 0.18 C28 + 0.18 C29 + 0.02 C32 + 0.02 C33 - C73 <= 0
 R51: - 0.18 C28 - 0.18 C29 - 0.02 C32 - 0.02 C33 + C73 <= 64
 R52: - 3 C26 + C34 <= 0
 R53: - 4 C26 - C34 <= 0
 R54: - 4 C26 - C30 + C34 <= 4
 R55: 3 C26 + C30 - C34 <= 3
 R56: 3 C27 + C31 <= 3
 R57: - 4 C27 - C31 <= -2.22045e-016
 R58: 0.18 C28 + 0.18 C29 + 0.18 C30 + 0.02 C32 + 0.02 C33 + 0.02 C34 - C73
   <= 0
 R59: - 0.18 C28 - 0.18 C29 - 0.18 C30 - 0.02 C32 - 0.02 C33 - 0.02 C34
   + C73 <= 64
 R60: - 3 C27 + C35 <= 0
 R61: - 4 C27 - C35 <= 0
 R62: - 4 C27 - C31 + C35 <= 4
 R63: 3 C27 + C31 - C35 <= 3
 R64: C36 + C37 + C38 + C39 <= 1
 R65: - C74 <= 10
 R66: C74 <= 120
 R67: - 5 C36 + C56 <= 0
 R68: - C56 <= 0
 R69: - C52 + C56 <= 0
 R70: 5 C36 + C52 - C56 <= 5
 R71: - C52 <= -2.22045e-016
 R72: - 6.5 C37 + C57 <= 0
 R73: 5 C37 - C57 <= 0
 R74: - 5 C37 - C52 + C57 <= -5
 R75: 6.5 C37 + C52 - C57 <= 6.5
 R76: 6.5 C37 - C52 <= -2.22045e-016
 R77: - 11 C38 + C58 <= 0
 R78: 6.5 C38 - C58 <= 0
 R79: - 6.5 C38 - C52 + C58 <= -6.5
 R80: 11 C38 + C52 - C58 <= 11
 R81: 6.5 C38 - C52 <= -2.22045e-016
 R82: - 15 C39 + C59 <= 0
 R83: 11 C39 - C59 <= 0
 R84: - 11 C39 - C52 + C59 <= -11
 R85: 15 C39 + C52 - C59 <= 15
 R86: 11 C39 - C52 <= -2.22045e-016
 R87: C40 + C41 + C42 + C43 <= 1
 R88: 1.813333333333333 C36 - 91.8905 C37 + 112.0278253991767 C38
   - 21.49735243198192 C39 + 0.6976 C56 + 4.3908 C57
   - 1.836856362139911 C58 + 4.05812 C59 - C74 <= 9.6
 R89: - 1.813333333333333 C36 + 91.8905 C37 - 112.0278253991767 C38
   + 21.49735243198192 C39 - 0.6976 C56 - 4.3908 C57
   + 1.836856362139911 C58 - 4.05812 C59 + C74 <= 120.4
 R90: - 5 C40 + C60 <= 0
 R91: - C60 <= 0
 R92: - C53 + C60 <= 0
 R93: 5 C40 + C53 - C60 <= 5
 R94: - C53 <= -2.22045e-016
 R95: - 6.5 C41 + C61 <= 0
 R96: 5 C41 - C61 <= 0
 R97: - 5 C41 - C53 + C61 <= -5
 R98: 6.5 C41 + C53 - C61 <= 6.5
 R99: 6.5 C41 - C53 <= -2.22045e-016
 R100: - 11 C42 + C62 <= 0
 R101: 6.5 C42 - C62 <= 0
 R102: - 6.5 C42 - C53 + C62 <= -6.5
 R103: 11 C42 + C53 - C62 <= 11
 R104: 6.5 C42 - C53 <= -2.22045e-016
 R105: - 15 C43 + C63 <= 0
 R106: 11 C43 - C63 <= 0
 R107: - 11 C43 - C53 + C63 <= -11
 R108: 15 C43 + C53 - C63 <= 15
 R109: 11 C43 - C53 <= -2.22045e-016
 R110: C44 + C45 + C46 + C47 <= 1
 R111: 1.813333333333333 C36 - 91.8905 C37 + 112.0278253991767 C38
   - 21.49735243198192 C39 + 1.813333333333333 C40 - 91.8905 C41
   + 112.0278253991767 C42 - 21.49735243198192 C43 + 0.6976 C56
   + 4.3908 C57 - 1.836856362139911 C58 + 4.05812 C59 + 0.6976 C60
   + 4.3908 C61 - 1.836856362139911 C62 + 4.05812 C63 - C74 <= 9.2
 R112: - 1.813333333333333 C36 + 91.8905 C37 - 112.0278253991767 C38
   + 21.49735243198192 C39 - 1.813333333333333 C40 + 91.8905 C41
   - 112.0278253991767 C42 + 21.49735243198192 C43 - 0.6976 C56
   - 4.3908 C57 + 1.836856362139911 C58 - 4.05812 C59 - 0.6976 C60
   - 4.3908 C61 + 1.836856362139911 C62 - 4.05812 C63 + C74 <= 120.8
 R113: - 5 C44 + C64 <= 0
 R114: - C64 <= 0
 R115: - C54 + C64 <= 0
 R116: 5 C44 + C54 - C64 <= 5
 R117: - C54 <= -2.22045e-016
 R118: - 6.5 C45 + C65 <= 0
 R119: 5 C45 - C65 <= 0
 R120: - 5 C45 - C54 + C65 <= -5
 R121: 6.5 C45 + C54 - C65 <= 6.5
 R122: 6.5 C45 - C54 <= -2.22045e-016
 R123: - 11 C46 + C66 <= 0
 R124: 6.5 C46 - C66 <= 0
 R125: - 6.5 C46 - C54 + C66 <= -6.5
 R126: 11 C46 + C54 - C66 <= 11
 R127: 6.5 C46 - C54 <= -2.22045e-016
 R128: - 15 C47 + C67 <= 0
 R129: 11 C47 - C67 <= 0
 R130: - 11 C47 - C54 + C67 <= -11
 R131: 15 C47 + C54 - C67 <= 15
 R132: 11 C47 - C54 <= -2.22045e-016
 R133: C48 + C49 + C50 + C51 <= 1
 R134: 1.813333333333333 C36 - 91.8905 C37 + 112.0278253991767 C38
   - 21.49735243198192 C39 + 1.813333333333333 C40 - 91.8905 C41
   + 112.0278253991767 C42 - 21.49735243198192 C43 + 1.813333333333333 C44
   - 91.8905 C45 + 112.0278253991767 C46 - 21.49735243198192 C47
   + 0.6976 C56 + 4.3908 C57 - 1.836856362139911 C58 + 4.05812 C59
   + 0.6976 C60 + 4.3908 C61 - 1.836856362139911 C62 + 4.05812 C63
   + 0.6976 C64 + 4.3908 C65 - 1.836856362139911 C66 + 4.05812 C67 - C74
   <= 8.8
 R135: - 1.813333333333333 C36 + 91.8905 C37 - 112.0278253991767 C38
   + 21.49735243198192 C39 - 1.813333333333333 C40 + 91.8905 C41
   - 112.0278253991767 C42 + 21.49735243198192 C43 - 1.813333333333333 C44
   + 91.8905 C45 - 112.0278253991767 C46 + 21.49735243198192 C47
   - 0.6976 C56 - 4.3908 C57 + 1.836856362139911 C58 - 4.05812 C59
   - 0.6976 C60 - 4.3908 C61 + 1.836856362139911 C62 - 4.05812 C63
   - 0.6976 C64 - 4.3908 C65 + 1.836856362139911 C66 - 4.05812 C67 + C74
   <= 121.2
 R136: - 5 C48 + C68 <= 0
 R137: - C68 <= 0
 R138: - C55 + C68 <= 0
 R139: 5 C48 + C55 - C68 <= 5
 R140: - C55 <= -2.22045e-016
 R141: - 6.5 C49 + C69 <= 0
 R142: 5 C49 - C69 <= 0
 R143: - 5 C49 - C55 + C69 <= -5
 R144: 6.5 C49 + C55 - C69 <= 6.5
 R145: 6.5 C49 - C55 <= -2.22045e-016
 R146: - 11 C50 + C70 <= 0
 R147: 6.5 C50 - C70 <= 0
 R148: - 6.5 C50 - C55 + C70 <= -6.5
 R149: 11 C50 + C55 - C70 <= 11
 R150: 6.5 C50 - C55 <= -2.22045e-016
 R151: - 15 C51 + C71 <= 0
 R152: 11 C51 - C71 <= 0
 R153: - 11 C51 - C55 + C71 <= -11
 R154: 15 C51 + C55 - C71 <= 15
 R155: 11 C51 - C55 <= -2.22045e-016
 R156: - C0 - C12 <= 0
 R157: - C1 - C13 <= 0
 R158: - C2 - C14 <= 0
 R159: - C3 - C15 <= 0
 R160: - C4 - C24 <= 0
 R161: - C5 + C24 - C25 <= 0
 R162: - C6 + C25 - C26 <= 0
 R163: - C7 + C26 - C27 <= 0
 R164: - C8 - C36 - C37 - C38 - C39 <= 0
 R165: - C9 + C36 + C37 + C38 + C39 - C40 - C41 - C42 - C43 <= 0
 R166: - C10 + C40 + C41 + C42 + C43 - C44 - C45 - C46 - C47 <= 0
 R167: - C11 + C44 + C45 + C46 + C47 - C48 - C49 - C50 - C51 <= 0
 R168: - C0 + C12 <= 0
 R169: - C1 + C13 <= 0
 R170: - C2 + C14 <= 0
 R171: - C3 + C15 <= 0
 R172: - C4 + C24 <= 0
 R173: - C5 - C24 + C25 <= 0
 R174: - C6 - C25 + C26 <= 0
 R175: - C7 - C26 + C27 <= 0
 R176: - C8 + C36 + C37 + C38 + C39 <= 0
 R177: - C9 - C36 - C37 - C38 - C39 + C40 + C41 + C42 + C43 <= 0
 R178: - C10 - C40 - C41 - C42 - C43 + C44 + C45 + C46 + C47 <= 0
 R179: - C11 - C44 - C45 - C46 - C47 + C48 + C49 + C50 + C51 <= 0
Bounds
Binaries
 C12 C13 C14 C15 C24 C25 C26 C27 C36 C37 C38 C39 C40 C41 C42 C43 C44 C45
 C46 C47 C48 C49 C50 C51
Semi-continuous
 C20 C21 C22 C23 C32 C33 C34 C35 C56 C57 C58 C59 C60 C61 C62 C63 C64 C65
 C66 C67 C68 C69 C70 C71
End
